w = 23;
n = 19;
measures = [|3, 20,
|4, 12,
|4, 11,
|3, 14,
|4, 10,
|3, 12,
|3, 11,
|3, 10,
|3, 9,
|3, 8,
|4, 6,
|3, 7,
|3, 6,
|6, 3,
|4, 4,
|3, 5,
|3, 4,
|4, 3,
|3, 3,
|];
initial_x = [0, 3, 7, 11, 14, 18, 0, 3, 6, 9, 12, 16, 19, 0, 6, 10, 13, 16, 20];
initial_y = [0, 0, 0, 0, 0, 0, 20, 20, 20, 20, 20, 20, 20, 31, 31, 31, 31, 31, 31];